Route #1: 18 67 60 61 92 77 143 119 191 184 200 145 102 75 69 196 122 107 38 138 156 7 114 187 24 136 50 173 5 22 86 99 
Route #2: 23 41 47 56 199 116 65 19 118 152 43 103 88 139 15 195 132 31 71 48 167 178 101 185 42 125 115 80 
Route #3: 34 4 100 104 63 3 165 135 170 180 14 176 98 121 189 83 20 30 109 12 110 82 2 106 54 182 76 108 188 97 28 190 52 
Route #4: 73 91 79 161 26 90 166 157 84 141 11 142 66 64 123 105 93 198 130 10 46 85 126 169 154 53 171 
Route #5: 74 192 36 33 94 35 177 134 149 158 144 111 
Route #6: 131 62 179 162 117 137 81 51 59 37 172 120 49 9 129 147 160 29 140 155 1 175 72 39 
Route #7: 164 183 181 78 8 124 57 150 58 133 17 16 89 174 70 153 25 113 87 163 148 
Route #8: 168 151 45 95 128 194 197 44 146 6 40 21 68 32 13 27 193 159 127 112 186 55 96 
Cost 2549.4
